NAME: tsp20-19
TYPE: TSP
DIMENSION: 20
EDGE_WEIGHT_TYPE: EUC_2D
NODE_COORD_SECTION
0 18 69
1 33 7
2 92 96
3 27 86
4 25 63
5 100 47
6 3 43
7 80 90
8 96 27
9 48 4
10 84 46
11 66 16
12 22 75
13 3 41
14 2 38
15 52 80
16 4 15
17 57 85
18 70 74
19 21 45
EOF